; Copyright (c) 2026 The RIINA Authors. All rights reserved.
; Auto-generated from 02_FORMAL/coq/properties/SubstitutionCommute.v (11 validations)
; Generated by scripts/generate-full-stack.py
;
; Translation Validation for SubstitutionCommute
; Layer 9: Verifies compiler backend preserves formal semantics.
; Each assertion checks source IR ≡ target code for a proven property.

(set-logic QF_LIA)
(set-option :produce-models true)

; IR node representation
(declare-sort IRNode 0)
(declare-sort TargetNode 0)

; id_rho_sc: source semantics (matches Coq)
(declare-fun source_id_rho_sc () Bool)
(declare-fun target_id_rho_sc () Bool)
(assert (= source_id_rho_sc target_id_rho_sc))

; extend_rho_sc: source semantics (matches Coq)
(declare-fun source_extend_rho_sc () Bool)
(declare-fun target_extend_rho_sc () Bool)
(assert (= source_extend_rho_sc target_extend_rho_sc))

; closed_expr_sc: source semantics (matches Coq)
(declare-fun source_closed_expr_sc () Bool)
(declare-fun target_closed_expr_sc () Bool)
(assert (= source_closed_expr_sc target_closed_expr_sc))

; closed_rho_sc: source semantics (matches Coq)
(declare-fun source_closed_rho_sc () Bool)
(declare-fun target_closed_rho_sc () Bool)
(assert (= source_closed_rho_sc target_closed_rho_sc))

; extend_rho_sc_same: translation preserves property (matches Coq: Lemma)
(declare-fun source_extend_rho_sc_same () Bool)
(declare-fun target_extend_rho_sc_same () Bool)
(assert (= source_extend_rho_sc_same target_extend_rho_sc_same))

; extend_rho_sc_diff: translation preserves property (matches Coq: Lemma)
(declare-fun source_extend_rho_sc_diff () Bool)
(declare-fun target_extend_rho_sc_diff () Bool)
(assert (= source_extend_rho_sc_diff target_extend_rho_sc_diff))

; extend_rho_sc_shadow: translation preserves property (matches Coq: Lemma)
(declare-fun source_extend_rho_sc_shadow () Bool)
(declare-fun target_extend_rho_sc_shadow () Bool)
(assert (= source_extend_rho_sc_shadow target_extend_rho_sc_shadow))

; extend_rho_sc_comm: translation preserves property (matches Coq: Lemma)
(declare-fun source_extend_rho_sc_comm () Bool)
(declare-fun target_extend_rho_sc_comm () Bool)
(assert (= source_extend_rho_sc_comm target_extend_rho_sc_comm))

; subst_not_free_sc: translation preserves property (matches Coq: Lemma)
(declare-fun source_subst_not_free_sc () Bool)
(declare-fun target_subst_not_free_sc () Bool)
(assert (= source_subst_not_free_sc target_subst_not_free_sc))

; subst_closed_sc: translation preserves property (matches Coq: Lemma)
(declare-fun source_subst_closed_sc () Bool)
(declare-fun target_subst_closed_sc () Bool)
(assert (= source_subst_closed_sc target_subst_closed_sc))

; closed_unit_sub: translation preserves property (matches Coq: Lemma)
(declare-fun source_closed_unit_sub () Bool)
(declare-fun target_closed_unit_sub () Bool)
(assert (= source_closed_unit_sub target_closed_unit_sub))

; closed_bool_sub: translation preserves property (matches Coq: Lemma)
(declare-fun source_closed_bool_sub () Bool)
(declare-fun target_closed_bool_sub () Bool)
(assert (= source_closed_bool_sub target_closed_bool_sub))

; closed_int_sub: translation preserves property (matches Coq: Lemma)
(declare-fun source_closed_int_sub () Bool)
(declare-fun target_closed_int_sub () Bool)
(assert (= source_closed_int_sub target_closed_int_sub))

; closed_string_sub: translation preserves property (matches Coq: Lemma)
(declare-fun source_closed_string_sub () Bool)
(declare-fun target_closed_string_sub () Bool)
(assert (= source_closed_string_sub target_closed_string_sub))

; closed_loc_sub: translation preserves property (matches Coq: Lemma)
(declare-fun source_closed_loc_sub () Bool)
(declare-fun target_closed_loc_sub () Bool)
(assert (= source_closed_loc_sub target_closed_loc_sub))

; Verify all translation validations are satisfiable
(check-sat)
(exit)
